% seed = 0

mint = 29;
% maxt = 91;

nActs = 27;
dur = [0,2,3,3,3,3,5,5,5,5,4,4,5,2,3,3,4,4,3,5,3,5,3,3,4,2,0];

nSkills = 8;
sreq = [| 0,0,0,0,0,0,0,0,
	| 1,2,0,1,1,0,0,0,
	| 0,2,1,0,0,0,2,0,
	| 1,1,2,0,0,1,0,0,
	| 4,1,0,0,0,0,0,0,
	| 0,1,1,1,1,0,0,0,
	| 0,2,0,0,1,0,0,1,
	| 0,2,0,0,0,0,1,1,
	| 2,0,0,1,0,1,0,0,
	| 4,0,0,0,0,0,0,0,
	| 1,0,1,0,0,1,0,0,
	| 1,1,0,0,0,0,0,1,
	| 1,1,0,0,0,0,0,1,
	| 1,0,0,1,1,0,0,0,
	| 2,0,0,0,0,0,0,1,
	| 1,1,1,0,0,1,0,1,
	| 0,1,0,0,1,0,2,1,
	| 2,0,0,0,0,0,2,1,
	| 1,0,0,1,1,1,0,1,
	| 3,0,0,0,0,1,0,1,
	| 0,2,0,0,1,0,1,0,
	| 0,0,1,0,2,1,0,0,
	| 2,0,0,1,0,0,1,0,
	| 1,0,0,2,1,0,0,0,
	| 1,1,1,0,0,0,0,1,
	| 0,2,1,0,0,0,1,0,
	| 0,0,0,0,0,0,0,0, |];

% SumOfsreq = 104;

nResources = 10;
mastery = [| false,true,true,true,true,true,true,false,
	| true,true,true,false,true,true,true,false,
	| false,false,true,true,true,true,true,true,
	| true,false,true,true,true,false,true,false,
	| true,true,true,true,false,false,false,true,
	| false,true,false,true,true,true,false,true,
	| true,true,true,false,false,true,false,true,
	| false,true,true,false,false,false,true,true,
	| true,true,false,false,true,true,false,false,
	| false,true,true,false,false,false,true,true, |];

nPrecs = 92;
pred = [1,1,1,1,1,1,1,1,1,1,1,1,1,1,1,1,1,1,1,1,1,1,1,1,1,2,2,3,3,3,3,3,3,3,4,4,4,5,5,5,5,6,6,7,7,7,7,7,8,8,8,9,9,9,10,10,10,10,11,11,11,12,12,12,12,13,13,13,13,14,14,14,15,15,16,16,16,17,17,17,18,18,19,19,20,21,22,22,23,24,25,26];
succ = [2,3,4,5,6,7,8,9,10,11,12,13,14,15,16,17,18,19,20,21,22,23,24,25,26,9,27,5,7,14,15,21,24,27,26,27,14,10,27,23,18,27,22,9,18,27,22,26,10,27,21,26,27,24,18,27,13,23,17,27,24,25,27,13,14,17,25,27,16,18,27,24,25,27,17,25,27,26,19,27,27,22,27,24,27,27,25,27,27,27,27,27];

nUnrels = 194;
unpred = [2,2,2,2,2,2,2,2,2,2,2,2,2,2,2,2,2,2,2,2,2,3,3,3,3,3,3,4,4,4,4,4,4,4,4,4,4,4,4,4,4,4,4,5,5,5,5,5,5,5,5,5,5,6,6,6,6,6,6,6,6,6,6,6,6,6,6,6,6,6,6,7,7,7,7,7,7,7,7,7,7,7,7,7,8,8,8,8,8,8,9,9,9,9,9,9,9,9,9,9,9,9,9,9,9,10,10,10,10,10,10,11,11,11,11,11,11,11,11,11,11,11,12,12,12,12,13,13,13,13,13,13,13,14,14,14,14,14,14,14,14,15,15,15,15,15,15,15,15,15,15,16,16,16,16,16,17,17,17,17,17,17,18,18,18,18,18,18,19,19,19,19,19,19,20,20,20,20,20,20,21,21,21,21,21,22,22,22,23,23,23,24,24,25];
unsucc = [3,4,5,6,7,8,10,11,12,13,14,15,16,17,18,19,20,21,22,23,25,4,6,8,11,12,20,5,6,7,8,9,10,11,12,13,15,16,17,19,20,21,23,6,7,8,9,11,12,14,15,20,21,7,8,9,10,11,12,13,14,15,16,17,18,19,20,21,23,24,26,8,10,11,12,13,14,15,16,17,19,20,21,23,9,11,12,14,15,20,10,11,12,13,14,15,16,17,18,19,20,21,22,23,25,11,12,14,15,20,21,12,13,14,15,16,18,20,21,22,23,25,15,20,21,23,14,15,18,20,21,22,23,15,16,17,19,20,21,23,26,16,17,18,19,20,21,22,23,24,26,18,20,21,22,23,18,20,21,22,23,25,19,20,21,23,24,26,20,21,22,23,25,26,21,22,23,24,25,26,22,23,24,25,26,23,24,26,24,25,26,25,26,26];

USEFUL_RES = [{},
	{1,2,3,4,5,6,7,8,9,10},
	{1,2,3,4,5,6,7,8,9,10},
	{1,2,3,4,5,6,7,8,9,10},
	{1,2,4,5,6,7,8,9,10},
	{1,2,3,4,5,6,7,8,9,10},
	{1,2,3,4,5,6,7,8,9,10},
	{1,2,3,4,5,6,7,8,9,10},
	{1,2,3,4,5,6,7,9},
	{2,4,5,7,9},
	{1,2,3,4,5,6,7,8,9,10},
	{1,2,3,4,5,6,7,8,9,10},
	{1,2,3,4,5,6,7,8,9,10},
	{1,2,3,4,5,6,7,9},
	{2,3,4,5,6,7,8,9,10},
	{1,2,3,4,5,6,7,8,9,10},
	{1,2,3,4,5,6,7,8,9,10},
	{1,2,3,4,5,6,7,8,9,10},
	{1,2,3,4,5,6,7,8,9,10},
	{1,2,3,4,5,6,7,8,9,10},
	{1,2,3,4,5,6,7,8,9,10},
	{1,2,3,4,5,6,7,8,9,10},
	{1,2,3,4,5,6,7,8,9,10},
	{1,2,3,4,5,6,7,9},
	{1,2,3,4,5,6,7,8,9,10},
	{1,2,3,4,5,6,7,8,9,10},
	{}];

POTENTIAL_ACT = [{2,3,4,5,6,7,8,9,11,12,13,14,16,17,18,19,20,21,22,23,24,25,26},
	{2,3,4,5,6,7,8,9,10,11,12,13,14,15,16,17,18,19,20,21,22,23,24,25,26},
	{2,3,4,6,7,8,9,11,12,13,14,15,16,17,18,19,20,21,22,23,24,25,26},
	{2,3,4,5,6,7,8,9,10,11,12,13,14,15,16,17,18,19,20,21,22,23,24,25,26},
	{2,3,4,5,6,7,8,9,10,11,12,13,14,15,16,17,18,19,20,21,22,23,24,25,26},
	{2,3,4,5,6,7,8,9,11,12,13,14,15,16,17,18,19,20,21,22,23,24,25,26},
	{2,3,4,5,6,7,8,9,10,11,12,13,14,15,16,17,18,19,20,21,22,23,24,25,26},
	{2,3,4,5,6,7,8,11,12,13,15,16,17,18,19,20,21,22,23,25,26},
	{2,3,4,5,6,7,8,9,10,11,12,13,14,15,16,17,18,19,20,21,22,23,24,25,26},
	{2,3,4,5,6,7,8,11,12,13,15,16,17,18,19,20,21,22,23,25,26}];
